NAME : LPS-n17-m140
COMMENT : (Lartu-Peter-Santi Plot, instance 5740 out of 39200. 17 customers.)
TYPE : CVRP
DIMENSION : 17
EDGE_WEIGHT_TYPE : EUC_2D
CAPACITY : 104
NODE_COORD_SECTION
 1 47 1
 2 12 73
 3 39 82
 4 49 2
 5 83 50
 6 49 69
 7 26 35
 8 7 14
 9 56 13
 10 23 67
 11 22 35
 12 4 77
 13 84 14
 14 3 26
 15 13 85
 16 73 18
 17 57 63
DEMAND_SECTION
1 0
2 89
3 67
4 32
5 12
6 96
7 38
8 65
9 3
10 57
11 83
12 38
13 29
14 8
15 45
16 34
17 59
DEPOT_SECTION
 1
 -1
EOF
